AutoCreatByScript                       
   1.00000000000000     
     6.3621569300000003    0.0000000000000000    0.0000000000000000
     0.0000000000000000    6.3844829900000004    0.0000000000000000
     0.0000000000000000    0.0000000000000000   22.0215984099999993
   H    C    O    Ru   Ir
     4     1    32     1    15
Selective dynamics
Direct
  0.5711267496641208  0.2493555918073656  0.5680498986119247   T   T   T
  0.5843389535713616  0.6354792373550792  0.5698996160280955   T   T   T
  0.7275798797720611  0.3965208460461349  0.6138040875312668   T   T   T
  0.4392769871500791  0.4063910996205530  0.6152899799125585   T   T   T
  0.5825518250305561  0.4166678587877256  0.5875589355586806   T   T   T
  0.0891099999999980  0.3554600000000008  0.9999999999999998   F   F   F
  0.5891099999999980  0.3554600000000008  0.9999999999999998   F   F   F
  0.3391099999999980  1.0469300000000032  1.0555099999999982   F   F   F
  0.8391099999999979  1.0469300000000032  1.0555099999999982   F   F   F
  0.3391099999999980  0.6639899999999983  1.0555099999999982   F   F   F
  0.8391099999999979  0.6639899999999983  1.0555099999999982   F   F   F
  0.0891099999999980  0.3554600000000008  0.1110200000000034   F   F   F
  0.5891099999999980  0.3554600000000008  0.1110200000000034   F   F   F
  0.0891099999999980  0.8554600000000008  0.1449599999999975   F   F   F
  0.5891099999999980  0.8554600000000008  0.1449599999999975   F   F   F
  0.3391099999999980  0.1639899999999983  0.2004700000000028   F   F   F
  0.8391099999999979  0.1639899999999983  0.2004700000000028   F   F   F
  0.3391099999999980  0.5469300000000032  0.2004700000000028   F   F   F
  0.8391099999999979  0.5469300000000032  0.2004700000000028   F   F   F
  0.0891099999999980  0.8554600000000008  0.2559800000000010   F   F   F
  0.5891099999999980  0.8554600000000008  0.2559800000000010   F   F   F
  0.0897415253846639  0.3547370093042377  0.2893847786688284   T   T   T
  0.5893577207197100  0.3552019611837527  0.2889732902902751   T   T   T
  0.3399649733001702  1.0466681979248404  0.3451047003851177   T   T   T
  0.8390446865816075  1.0466819249645412  0.3448479752606317   T   T   T
  0.3397474169790407  0.6642005139423006  0.3451376264691932   T   T   T
  0.8392730945087139  0.6642176119565090  0.3449555598566607   T   T   T
  0.0888771591449659  0.3572407887078355  0.3977752288540641   T   T   T
  0.5903405284376202  0.3530353590035822  0.3991053683823250   T   T   T
  0.0857062296121204  0.8619051699448576  0.4344652384927271   T   T   T
  0.5929977812803483  0.8552978573805045  0.4353648912477873   T   T   T
  0.3367914397332564  0.1630127087160813  0.4905462209105642   T   T   T
  0.8386691122155555  0.1628129364895859  0.4919893645444689   T   T   T
  0.8425879491385879  0.5475587228487772  0.4890958551068658   T   T   T
  0.3331279331182684  0.5467462182314229  0.4879019411842369   T   T   T
  1.0857370375060904  0.8551919126303732  0.5435778457161080   T   T   T
  0.5890333068003409  0.8228016268500193  0.5486662668615180   T   T   T
  0.8417474691994589  0.8529945763614027  0.4922713427563091   T   T   T
  0.3391099999999980  0.3554600000000008  1.0555099999999982   F   F   F
  0.8391099999999979  0.3554600000000008  1.0555099999999982   F   F   F
  0.0891099999999980  0.8554600000000008  1.0555099999999982   F   F   F
  0.5891099999999980  0.8554600000000008  1.0555099999999982   F   F   F
  0.0891099999999980  0.3554600000000008  0.2004700000000028   F   F   F
  0.5891099999999980  0.3554600000000008  0.2004700000000028   F   F   F
  0.3391099999999980  0.8554600000000008  0.2004700000000028   F   F   F
  0.8391099999999979  0.8554600000000008  0.2004700000000028   F   F   F
  0.8378860251318551  0.3554115445009360  0.3439226843882950   T   T   T
  0.3413518397292211  0.3553778055022618  0.3441301824138472   T   T   T
  0.0893659600551889  0.8557912287135452  0.3456573175527856   T   T   T
  0.5894138123346782  0.8553146397959139  0.3460890408252493   T   T   T
  0.0865763769688325  0.3532267085663670  0.4853586233328131   T   T   T
  0.5880477310653680  0.3585306110126412  0.4893538914459555   T   T   T
  0.3366895886281973  0.8528822382276962  0.4905998192647604   T   T   T
 
  0.00000000E+00  0.00000000E+00  0.00000000E+00
  0.00000000E+00  0.00000000E+00  0.00000000E+00
  0.00000000E+00  0.00000000E+00  0.00000000E+00
  0.00000000E+00  0.00000000E+00  0.00000000E+00
  0.00000000E+00  0.00000000E+00  0.00000000E+00
  0.00000000E+00  0.00000000E+00  0.00000000E+00
  0.00000000E+00  0.00000000E+00  0.00000000E+00
  0.00000000E+00  0.00000000E+00  0.00000000E+00
  0.00000000E+00  0.00000000E+00  0.00000000E+00
  0.00000000E+00  0.00000000E+00  0.00000000E+00
  0.00000000E+00  0.00000000E+00  0.00000000E+00
  0.00000000E+00  0.00000000E+00  0.00000000E+00
  0.00000000E+00  0.00000000E+00  0.00000000E+00
  0.00000000E+00  0.00000000E+00  0.00000000E+00
  0.00000000E+00  0.00000000E+00  0.00000000E+00
  0.00000000E+00  0.00000000E+00  0.00000000E+00
  0.00000000E+00  0.00000000E+00  0.00000000E+00
  0.00000000E+00  0.00000000E+00  0.00000000E+00
  0.00000000E+00  0.00000000E+00  0.00000000E+00
  0.00000000E+00  0.00000000E+00  0.00000000E+00
  0.00000000E+00  0.00000000E+00  0.00000000E+00
  0.00000000E+00  0.00000000E+00  0.00000000E+00
  0.00000000E+00  0.00000000E+00  0.00000000E+00
  0.00000000E+00  0.00000000E+00  0.00000000E+00
  0.00000000E+00  0.00000000E+00  0.00000000E+00
  0.00000000E+00  0.00000000E+00  0.00000000E+00
  0.00000000E+00  0.00000000E+00  0.00000000E+00
  0.00000000E+00  0.00000000E+00  0.00000000E+00
  0.00000000E+00  0.00000000E+00  0.00000000E+00
  0.00000000E+00  0.00000000E+00  0.00000000E+00
  0.00000000E+00  0.00000000E+00  0.00000000E+00
  0.00000000E+00  0.00000000E+00  0.00000000E+00
  0.00000000E+00  0.00000000E+00  0.00000000E+00
  0.00000000E+00  0.00000000E+00  0.00000000E+00
  0.00000000E+00  0.00000000E+00  0.00000000E+00
  0.00000000E+00  0.00000000E+00  0.00000000E+00
  0.00000000E+00  0.00000000E+00  0.00000000E+00
  0.00000000E+00  0.00000000E+00  0.00000000E+00
  0.00000000E+00  0.00000000E+00  0.00000000E+00
  0.00000000E+00  0.00000000E+00  0.00000000E+00
  0.00000000E+00  0.00000000E+00  0.00000000E+00
  0.00000000E+00  0.00000000E+00  0.00000000E+00
  0.00000000E+00  0.00000000E+00  0.00000000E+00
  0.00000000E+00  0.00000000E+00  0.00000000E+00
  0.00000000E+00  0.00000000E+00  0.00000000E+00
  0.00000000E+00  0.00000000E+00  0.00000000E+00
  0.00000000E+00  0.00000000E+00  0.00000000E+00
  0.00000000E+00  0.00000000E+00  0.00000000E+00
  0.00000000E+00  0.00000000E+00  0.00000000E+00
  0.00000000E+00  0.00000000E+00  0.00000000E+00
  0.00000000E+00  0.00000000E+00  0.00000000E+00
  0.00000000E+00  0.00000000E+00  0.00000000E+00
  0.00000000E+00  0.00000000E+00  0.00000000E+00
