AutoCreatByScript
 1.000000000
    6.36215693     0.00000000     0.00000000
    0.00000000     6.38448299     0.00000000
    0.00000000     0.00000000    22.02159841
    H    C    O   Ru   Ir
    4    1   32    1   15
Selective Dynamics
Direct
    0.573521486444    0.332890746494    0.542347538452    T   T   T
    0.583968473201    0.643085208862    0.567518468967    T   T   T
    0.723722447115    0.386856169075    0.609219236308    T   T   T
    0.442815428287    0.383751349500    0.612745621226    T   T   T
    0.578859020373    0.423707074865    0.584519962387    T   T   T
    0.089110000000    0.355460000000    0.000000000000    F   F   F
    0.589110000000    0.355460000000    0.000000000000    F   F   F
    0.339110000000    0.046930000000    0.055510000000    F   F   F
    0.839110000000    0.046930000000    0.055510000000    F   F   F
    0.339110000000    0.663990000000    0.055510000000    F   F   F
    0.839110000000    0.663990000000    0.055510000000    F   F   F
    0.089110000000    0.355460000000    0.111020000000    F   F   F
    0.589110000000    0.355460000000    0.111020000000    F   F   F
    0.089110000000    0.855460000000    0.144960000000    F   F   F
    0.589110000000    0.855460000000    0.144960000000    F   F   F
    0.339110000000    0.163990000000    0.200470000000    F   F   F
    0.839110000000    0.163990000000    0.200470000000    F   F   F
    0.339110000000    0.546930000000    0.200470000000    F   F   F
    0.839110000000    0.546930000000    0.200470000000    F   F   F
    0.089110000000    0.855460000000    0.255980000000    F   F   F
    0.589110000000    0.855460000000    0.255980000000    F   F   F
    0.089150000000    0.355380000000    0.289540000000    T   T   T
    0.589160000000    0.355380000000    0.289540000000    T   T   T
    0.339150000000    0.046690000000    0.346220000000    T   T   T
    0.839150000000    0.046710000000    0.346180000000    T   T   T
    0.339150000000    0.664220000000    0.346180000000    T   T   T
    0.839140000000    0.664200000000    0.346140000000    T   T   T
    0.088980000000    0.355820000000    0.400030000000    T   T   T
    0.589360000000    0.355830000000    0.400030000000    T   T   T
    0.084790000000    0.855500000000    0.435920000000    T   T   T
    0.593500000000    0.855500000000    0.435940000000    T   T   T
    0.339140000000    0.165520000000    0.494070000000    T   T   T
    0.839160000000    0.166260000000    0.494730000000    T   T   T
    0.839150000000    0.544640000000    0.494740000000    T   T   T
    0.339150000000    0.545360000000    0.494080000000    T   T   T
    0.083950000000    0.855480000000    0.545090000000    T   T   T
    0.594330000000    0.855510000000    0.545060000000    T   T   T
    0.839160000000    0.855440000000    0.495120000000    T   T   T
    0.339110000000    0.355460000000    0.055510000000    F   F   F
    0.839110000000    0.355460000000    0.055510000000    F   F   F
    0.089110000000    0.855460000000    0.055510000000    F   F   F
    0.589110000000    0.855460000000    0.055510000000    F   F   F
    0.089110000000    0.355460000000    0.200470000000    F   F   F
    0.589110000000    0.355460000000    0.200470000000    F   F   F
    0.339110000000    0.855460000000    0.200470000000    F   F   F
    0.839110000000    0.855460000000    0.200470000000    F   F   F
    0.839160000000    0.355430000000    0.344960000000    T   T   T
    0.339160000000    0.355440000000    0.345020000000    T   T   T
    0.089010000000    0.855440000000    0.346490000000    T   T   T
    0.589260000000    0.855440000000    0.346500000000    T   T   T
    0.088570000000    0.355420000000    0.488330000000    T   T   T
    0.589700000000    0.355420000000    0.488330000000    T   T   T
    0.339130000000    0.855430000000    0.491960000000    T   T   T
