AutoCreatByScript
 1.000000000
    5.84467938     0.00000000     0.00000000
    0.00000000     6.31938021     0.00000000
    0.00000000     0.00000000    21.92922041
    H    C    O   Ge
    3    1   32   16
Selective Dynamics
Direct
    0.472771493194    0.650404498975    0.541258548648    T   T   T
    0.778414309421    0.658784080149    0.544934127043    T   T   T
    0.632739325025    0.409939785585    0.547239033348    T   T   T
    0.630940004830    0.569719997585    0.527881223664    T   T   T
    0.130810000000    0.569700000000    0.000000000000    F   F   F
    0.630810000000    0.569700000000    0.000000000000    F   F   F
    0.380810000000    0.263560000000    0.055860000000    F   F   F
    0.880810000000    0.263560000000    0.055860000000    F   F   F
    0.380810000000    0.875840000000    0.055860000000    F   F   F
    0.880810000000    0.875840000000    0.055860000000    F   F   F
    0.130810000000    0.569700000000    0.111730000000    F   F   F
    0.630810000000    0.569700000000    0.111730000000    F   F   F
    0.630810000000    0.069700000000    0.144090000000    F   F   F
    0.130810000000    0.069700000000    0.144090000000    F   F   F
    0.380810000000    0.375840000000    0.199950000000    F   F   F
    0.880810000000    0.375840000000    0.199950000000    F   F   F
    0.380810000000    0.763560000000    0.199950000000    F   F   F
    0.880810000000    0.763560000000    0.199950000000    F   F   F
    0.130810000000    0.069700000000    0.255820000000    F   F   F
    0.630810000000    0.069700000000    0.255820000000    F   F   F
    0.130800000000    0.569660000000    0.287440000000    T   T   T
    0.630800000000    0.569660000000    0.287440000000    T   T   T
    0.380770000000    0.265860000000    0.343980000000    T   T   T
    0.880770000000    0.265860000000    0.343980000000    T   T   T
    0.380790000000    0.873300000000    0.343980000000    T   T   T
    0.880790000000    0.873300000000    0.343980000000    T   T   T
    0.130740000000    0.569690000000    0.398520000000    T   T   T
    0.630740000000    0.569690000000    0.398520000000    T   T   T
    0.130740000000    0.069800000000    0.433770000000    T   T   T
    0.630740000000    0.069800000000    0.433770000000    T   T   T
    0.380710000000    0.384090000000    0.495640000000    T   T   T
    0.880710000000    0.384090000000    0.495640000000    T   T   T
    0.380760000000    0.755620000000    0.495600000000    T   T   T
    0.880760000000    0.755620000000    0.495600000000    T   T   T
    0.130740000000    0.069920000000    0.547430000000    T   T   T
    0.630740000000    0.069920000000    0.547430000000    T   T   T
    0.130810000000    0.069700000000    0.055860000000    F   F   F
    0.630810000000    0.069700000000    0.055860000000    F   F   F
    0.380810000000    0.569700000000    0.055860000000    F   F   F
    0.880810000000    0.569700000000    0.055860000000    F   F   F
    0.380810000000    0.069700000000    0.199950000000    F   F   F
    0.880810000000    0.069700000000    0.199950000000    F   F   F
    0.130810000000    0.569700000000    0.199950000000    F   F   F
    0.630810000000    0.569700000000    0.199950000000    F   F   F
    0.380780000000    0.569560000000    0.341400000000    T   T   T
    0.880780000000    0.569560000000    0.341400000000    T   T   T
    0.630780000000    0.069580000000    0.346940000000    T   T   T
    0.130780000000    0.069580000000    0.346940000000    T   T   T
    0.130760000000    0.569810000000    0.482280000000    T   T   T
    0.630760000000    0.569810000000    0.482280000000    T   T   T
    0.380730000000    0.069810000000    0.496950000000    T   T   T
    0.880730000000    0.069810000000    0.496950000000    T   T   T
