AutoCreatByScript                       
   1.00000000000000     
     6.3621569300000003    0.0000000000000000    0.0000000000000000
     0.0000000000000000    6.3844829900000004    0.0000000000000000
     0.0000000000000000    0.0000000000000000   22.0215984099999993
   O    Ru   Pd   Ir
    32     1     1    14
Selective dynamics
Direct
  0.0891099999999980  0.3554600000000008  0.0000000000000000   F   F   F
  0.5891099999999980  0.3554600000000008  0.0000000000000000   F   F   F
  0.3391099999999980  0.0469300000000032  0.0555099999999982   F   F   F
  0.8391099999999980  0.0469300000000032  0.0555099999999982   F   F   F
  0.3391099999999980  0.6639899999999983  0.0555099999999982   F   F   F
  0.8391099999999980  0.6639899999999983  0.0555099999999982   F   F   F
  0.0891099999999980  0.3554600000000008  0.1110200000000034   F   F   F
  0.5891099999999980  0.3554600000000008  0.1110200000000034   F   F   F
  0.5891099999999980  0.8554600000000008  0.1449599999999975   F   F   F
  0.0891099999999980  0.8554600000000008  0.1449599999999975   F   F   F
  0.3391099999999980  0.1639899999999983  0.2004700000000028   F   F   F
  0.8391099999999980  0.1639899999999983  0.2004700000000028   F   F   F
  0.3391099999999980  0.5469300000000032  0.2004700000000028   F   F   F
  0.8391099999999980  0.5469300000000032  0.2004700000000028   F   F   F
  0.0891099999999980  0.8554600000000008  0.2559800000000010   F   F   F
  0.5891099999999980  0.8554600000000008  0.2559800000000010   F   F   F
  0.0892501497765102  0.3553285431195614  0.2895317699484167   T   T   T
  0.5891930360619609  0.3553988403284067  0.2890466205739163   T   T   T
  0.3396399843202217  0.0469498748961792  0.3461445831273935   T   T   T
  0.8390473608594403  0.0469833854180383  0.3463529280591325   T   T   T
  0.3395578331924267  0.6641368339235398  0.3460526070425015   T   T   T
  0.8390907094643023  0.6641046234179762  0.3462533061535782   T   T   T
  0.0894458491756577  0.3559355223021709  0.3999617613583505   T   T   T
  0.5889929953158114  0.3566446709784603  0.3977823172782010   T   T   T
  0.0939537121876944  0.8554924970967055  0.4369213750256861   T   T   T
  0.5852762132028143  0.8554088037943871  0.4368041744756299   T   T   T
  0.3332208017316033  0.1639974713450809  0.5000916024272791   T   T   T
  0.8442524632459791  0.1625502889704641  0.4972617246286939   T   T   T
  0.3332359590066352  0.5465971571500530  0.5000981118989898   T   T   T
  0.8442231829710619  0.5480222411799802  0.4972584515821865   T   T   T
  0.0927288714588372  0.8552898625211133  0.5466092012186357   T   T   T
  0.5847867626650211  0.8553350951001703  0.5459678656375569   T   T   T
  0.3391557655464400  0.8552810512944851  0.4972160513963300   T   T   T
  0.5879251051830261  0.3551945074737795  0.4951529924744414   T   T   T
  0.3391099999999980  0.3554600000000008  0.0555099999999982   F   F   F
  0.8391099999999980  0.3554600000000008  0.0555099999999982   F   F   F
  0.0891099999999980  0.8554600000000008  0.0555099999999982   F   F   F
  0.5891099999999980  0.8554600000000008  0.0555099999999982   F   F   F
  0.0891099999999980  0.3554600000000008  0.2004700000000028   F   F   F
  0.5891099999999980  0.3554600000000008  0.2004700000000028   F   F   F
  0.3391099999999980  0.8554600000000008  0.2004700000000028   F   F   F
  0.8391099999999980  0.8554600000000008  0.2004700000000028   F   F   F
  0.8372325137494654  0.3555086510073786  0.3446007715679668   T   T   T
  0.3413196327579671  0.3555168859624442  0.3445686878113701   T   T   T
  0.0894928088838750  0.8555263311564215  0.3469778593728891   T   T   T
  0.5891950886251048  0.8554966377248011  0.3469220427573210   T   T   T
  0.0900855155413596  0.3552792781357382  0.4882879604376663   T   T   T
  0.8395513259497945  0.8552776088869585  0.4928478262112920   T   T   T
 
  0.00000000E+00  0.00000000E+00  0.00000000E+00
  0.00000000E+00  0.00000000E+00  0.00000000E+00
  0.00000000E+00  0.00000000E+00  0.00000000E+00
  0.00000000E+00  0.00000000E+00  0.00000000E+00
  0.00000000E+00  0.00000000E+00  0.00000000E+00
  0.00000000E+00  0.00000000E+00  0.00000000E+00
  0.00000000E+00  0.00000000E+00  0.00000000E+00
  0.00000000E+00  0.00000000E+00  0.00000000E+00
  0.00000000E+00  0.00000000E+00  0.00000000E+00
  0.00000000E+00  0.00000000E+00  0.00000000E+00
  0.00000000E+00  0.00000000E+00  0.00000000E+00
  0.00000000E+00  0.00000000E+00  0.00000000E+00
  0.00000000E+00  0.00000000E+00  0.00000000E+00
  0.00000000E+00  0.00000000E+00  0.00000000E+00
  0.00000000E+00  0.00000000E+00  0.00000000E+00
  0.00000000E+00  0.00000000E+00  0.00000000E+00
  0.00000000E+00  0.00000000E+00  0.00000000E+00
  0.00000000E+00  0.00000000E+00  0.00000000E+00
  0.00000000E+00  0.00000000E+00  0.00000000E+00
  0.00000000E+00  0.00000000E+00  0.00000000E+00
  0.00000000E+00  0.00000000E+00  0.00000000E+00
  0.00000000E+00  0.00000000E+00  0.00000000E+00
  0.00000000E+00  0.00000000E+00  0.00000000E+00
  0.00000000E+00  0.00000000E+00  0.00000000E+00
  0.00000000E+00  0.00000000E+00  0.00000000E+00
  0.00000000E+00  0.00000000E+00  0.00000000E+00
  0.00000000E+00  0.00000000E+00  0.00000000E+00
  0.00000000E+00  0.00000000E+00  0.00000000E+00
  0.00000000E+00  0.00000000E+00  0.00000000E+00
  0.00000000E+00  0.00000000E+00  0.00000000E+00
  0.00000000E+00  0.00000000E+00  0.00000000E+00
  0.00000000E+00  0.00000000E+00  0.00000000E+00
  0.00000000E+00  0.00000000E+00  0.00000000E+00
  0.00000000E+00  0.00000000E+00  0.00000000E+00
  0.00000000E+00  0.00000000E+00  0.00000000E+00
  0.00000000E+00  0.00000000E+00  0.00000000E+00
  0.00000000E+00  0.00000000E+00  0.00000000E+00
  0.00000000E+00  0.00000000E+00  0.00000000E+00
  0.00000000E+00  0.00000000E+00  0.00000000E+00
  0.00000000E+00  0.00000000E+00  0.00000000E+00
  0.00000000E+00  0.00000000E+00  0.00000000E+00
  0.00000000E+00  0.00000000E+00  0.00000000E+00
  0.00000000E+00  0.00000000E+00  0.00000000E+00
  0.00000000E+00  0.00000000E+00  0.00000000E+00
  0.00000000E+00  0.00000000E+00  0.00000000E+00
  0.00000000E+00  0.00000000E+00  0.00000000E+00
  0.00000000E+00  0.00000000E+00  0.00000000E+00
  0.00000000E+00  0.00000000E+00  0.00000000E+00
