AutoCreatByScript
 1.000000000
    2.59288006    -1.49700000     0.00000000
    0.00000000     2.99400000     0.00000000
    0.00000000     0.00000000     4.72200000
    C   Mo
    2    2
Selective Dynamics
Direct
    0.000000000000    0.000000000000    0.500000000000    T   T   T
    1.000000000000    1.000000000000    1.000000000000    T   T   T
    0.333333333333    0.666666666667    0.250000000000    T   T   T
    0.666666666667    0.333333333333    0.750000000000    T   T   T
