AutoCreatByScript                       
   1.00000000000000     
     6.3621569300000003    0.0000000000000000    0.0000000000000000
     0.0000000000000000    6.3844829900000004    0.0000000000000000
     0.0000000000000000    0.0000000000000000   22.0215984099999993
    H    C   O    Pd   Os   Ir   Pt
    4    1    32     1     1    13     1
Selective dynamics
Direct
  0.573521486444      0.332890746494      0.542347538452       T   T   T
  0.583968473201      0.643085208862      0.567518468967       T   T   T
  0.723722447115      0.386856169075      0.609219236308       T   T   T
  0.442815428287      0.383751349500      0.612745621226       T   T   T
  0.578859020373      0.423707074865      0.584519962387       T   T   T
  0.0891099999999980  0.3554600000000008  0.0000000000000000   F   F   F
  0.5891099999999980  0.3554600000000008  0.0000000000000000   F   F   F
  0.3391099999999980  0.0469300000000032  0.0555099999999982   F   F   F
  0.8391099999999980  0.0469300000000032  0.0555099999999982   F   F   F
  0.3391099999999980  0.6639899999999983  0.0555099999999982   F   F   F
  0.8391099999999980  0.6639899999999983  0.0555099999999982   F   F   F
  0.0891099999999980  0.3554600000000008  0.1110200000000034   F   F   F
  0.5891099999999980  0.3554600000000008  0.1110200000000034   F   F   F
  0.5891099999999980  0.8554600000000008  0.1449599999999975   F   F   F
  0.0891099999999980  0.8554600000000008  0.1449599999999975   F   F   F
  0.3391099999999980  0.1639899999999983  0.2004700000000028   F   F   F
  0.8391099999999980  0.1639899999999983  0.2004700000000028   F   F   F
  0.3391099999999980  0.5469300000000032  0.2004700000000028   F   F   F
  0.8391099999999980  0.5469300000000032  0.2004700000000028   F   F   F
  0.0891099999999980  0.8554600000000008  0.2559800000000010   F   F   F
  0.5891099999999980  0.8554600000000008  0.2559800000000010   F   F   F
  0.0879046299253731  0.3553463895911587  0.2893213289625121   T   T   T
  0.5871944555773125  0.3554025706609009  0.2890801770878748   T   T   T
  0.3382664244226733  0.0471705402581362  0.3460990646526560   T   T   T
  0.8375909680273295  0.0469101376483090  0.3457828097888658   T   T   T
  0.3382037789713334  0.6638195051971792  0.3460351936684276   T   T   T
  0.8376305478843296  0.6640985311161441  0.3457266299939755   T   T   T
  0.0860683671243962  0.3558069787346982  0.3995437612430806   T   T   T
  0.5867902522346351  0.3564546170577452  0.3979775314542624   T   T   T
  0.0835256071587252  0.8553757961336934  0.4368042677613330   T   T   T
  0.5944400513239162  0.8555413023389138  0.4368648472737062   T   T   T
  0.3358273223088327  0.1682274428697735  0.5057033651360968   T   T   T
  0.8506336050862386  0.1556173374952125  0.4922364663873130   T   T   T
  0.3359072021264760  0.5425008565580797  0.5056932679063203   T   T   T
  0.8506149563881351  0.5551082442560127  0.4922506097871617   T   T   T
  0.0779594377055831  0.8554120557682432  0.5488991905710020   T   T   T
  0.6029510910945235  0.8553990015683517  0.5482922586021083   T   T   T
  0.5929775000386970  0.3552258335119365  0.4947159854891211   T   T   T
  0.8398998631932866  0.8553393150193594  0.4956942631667870   T   T   T
  0.3391099999999980  0.3554600000000008  0.0555099999999982   F   F   F
  0.8391099999999980  0.3554600000000008  0.0555099999999982   F   F   F
  0.0891099999999980  0.8554600000000008  0.0555099999999982   F   F   F
  0.5891099999999980  0.8554600000000008  0.0555099999999982   F   F   F
  0.0891099999999980  0.3554600000000008  0.2004700000000028   F   F   F
  0.5891099999999980  0.3554600000000008  0.2004700000000028   F   F   F
  0.3391099999999980  0.8554600000000008  0.2004700000000028   F   F   F
  0.8391099999999980  0.8554600000000008  0.2004700000000028   F   F   F
  0.8350693118533322  0.3554800529544867  0.3444791107769439   T   T   T
  0.3388936106392035  0.3554690561352354  0.3445139877693753   T   T   T
  0.0883892648477293  0.8554818418521435  0.3465739629245433   T   T   T
  0.5879431033136661  0.8554701156956981  0.3465932177821529   T   T   T
  0.0992318878791934  0.3553624865876556  0.4875083813737986   T   T   T
  0.3392626049827284  0.8553672476340549  0.4942524690485978   T   T   T
 
